5 5
3 72 2 90 4 66 1 28 0 60
0 10 2 50 4 39 1 37 3 63
2 61 0 85 1 92 4 38 3 33
0 75 2 45 4 44 1 1 3 53
4 47 1 33 3 67 0 90 2 15
-1
0 3 4 5
0 3 5
0 2 5
0 1 2 4 5
0 3 4 5
-2
264 275 386
123 213
178 425
90 162 181 258
163 367 291

398 7
5 15 11 23 4
21 8 12 3 18
10 6 1 16 24
0 22 9 19 14
20 7 2 17 13
